NAME : n100w180.003.599.tour
COMMENT : Length = 599
COMMENT : Found by LKH [Keld Helsgaun] Tue May  2 05:19:10 2017
TYPE : TOUR
DIMENSION : 101
TOUR_SECTION
1
28
35
42
63
9
11
33
34
96
5
88
25
49
59
72
32
16
99
78
45
41
84
69
95
6
38
19
91
15
70
2
60
13
22
12
51
97
68
44
87
90
36
27
31
80
7
98
4
46
89
62
77
61
65
75
76
64
30
50
74
17
21
47
58
66
37
10
81
73
14
23
40
26
100
71
56
85
20
93
94
29
54
24
52
18
55
8
39
79
3
57
67
86
48
82
53
43
92
101
83
-1
EOF
